nNurses = 90;
nHours = 28;
minHours = 5;
maxHours = 20;
maxConsec = 13;
maxPresence = 20;
demand = [32, 28, 29, 31, 28, 24, 20, 24, 23, 26, 25, 27, 22, 24, 29, 34, 39, 38, 34, 35, 35, 37, 34, 33, 28, 31, 34, 34];
